db/data/29919404010347237826732905485026052.z3.out
sat
-------------------
16.298474090
